
(set-option :produce-models true)
(declare-fun certora_ct1_1 () (_ BitVec 256))
(declare-fun a_0 () (_ BitVec 256))
(declare-fun certora_ct2_1 () (_ BitVec 256))
(declare-fun b_0 () (_ BitVec 256))
(declare-fun certoraDummy1_1 () Bool)
(declare-fun certoraDummy1_2 () Bool)
(declare-fun certoraDummy2_1 () (_ BitVec 256))
(declare-fun certoraDummy2_2 () (_ BitVec 256))
(declare-fun certoraDummy2_3 () Bool)
(declare-fun certoraDummy2_4 () Bool)
(declare-fun certoraDummy1_3 () Bool)
(declare-fun lastAssignmentOverflown_2 () Bool)
(declare-fun c_1 () (_ BitVec 256))
(declare-fun certora_certoraCondt1_1 () (_ BitVec 256))
(declare-fun certoraTPos_1 () Bool)
(declare-fun certoraCond_1 () Bool)
(declare-fun certora_certoraAssumet_1 () Bool)
(declare-fun certoraAssume_1 () Bool)
(declare-fun certoraAssume_2 () (_ BitVec 256))
(declare-fun certoraAssume_3 () Bool)
(declare-fun certora_certoraAssumet1t1_1 () (_ BitVec 256))
(declare-fun certora_certoraAssumet1t2_1 () (_ BitVec 256))
(declare-fun certoraDivisionByZero_1 () Bool)
(declare-fun certora_certoraAssumet1_1 () (_ BitVec 256))
(declare-fun certora_certoraAssumet2_1 () (_ BitVec 256))
(declare-fun certoraAssume_4 () Bool)
(declare-fun lastOverflow_1 () Bool)
(declare-fun certora_certoraAssert_1t_1 () Bool)
(declare-fun certoraAssert_1_1 () Bool)
(declare-fun certora_certoraAssumet_2 () Bool)
(declare-fun certoraAssume_5 () Bool)
(declare-fun certora_certoraAssumet1t1_2 () (_ BitVec 256))
(declare-fun certora_certoraAssumet1t1_0 () (_ BitVec 256))
(declare-fun certora_certoraAssumet1t2_2 () (_ BitVec 256))
(declare-fun certora_certoraAssumet1t2_0 () (_ BitVec 256))
(declare-fun certoraDivisionByZero_2 () Bool)
(declare-fun certoraDivisionByZero_0 () Bool)
(declare-fun certora_certoraAssumet1_2 () (_ BitVec 256))
(declare-fun certora_certoraAssumet1_0 () (_ BitVec 256))
(declare-fun certora_certoraAssumet2_2 () (_ BitVec 256))
(declare-fun certora_certoraAssumet2_0 () (_ BitVec 256))
(declare-fun certora_certoraAssumet_0 () Bool)
(declare-fun OK_0_0_0_0_0_0_0 () Bool)
(declare-fun OK_89_0_0_0_0_0_0 () Bool)
(declare-fun OK_97_0_0_0_0_0_0 () Bool)
(declare-fun OK_102_0_0_0_0_0_0 () Bool)

(assert (not (=> (and (= OK_0_0_0_0_0_0_0 (=> (= certora_ct1_1 a_0) (=> (= certora_ct2_1 b_0) (=> (= certoraDummy1_1 (= certora_ct2_1 (_ bv0 256))) (=> (= certoraDummy1_2 (not certoraDummy1_1)) (=> (= certoraDummy2_1 (bvmul certora_ct1_1 certora_ct2_1)) (=> (= certoraDummy2_2 (bvudiv certoraDummy2_1 certora_ct2_1)) (=> (= certoraDummy2_3 (= certoraDummy2_2 certora_ct1_1)) (=> (= certoraDummy2_4 (not certoraDummy2_3)) (=> (= certoraDummy1_3 (and certoraDummy1_2 certoraDummy2_4)) (=> (= lastAssignmentOverflown_2 (or false certoraDummy1_3)) (=> (= c_1 (bvmul certora_ct1_1 certora_ct2_1)) (=> (= certora_certoraCondt1_1 b_0) (=> (= certoraTPos_1 (= certora_certoraCondt1_1 (_ bv0 256))) (=> (= certoraCond_1 (not certoraTPos_1)) (and OK_89_0_0_0_0_0_0 OK_97_0_0_0_0_0_0)))))))))))))))) (= OK_97_0_0_0_0_0_0 (=> (= certora_certoraAssumet_1 certoraCond_1) (=> (= certoraAssume_1 (not certora_certoraAssumet_1)) (=> certoraAssume_1 (=> (= certoraAssume_2 (_ bv1 256)) (=> (not (= certoraAssume_2 (_ bv0 256))) (=> (and true (and (and (and (and (and (and (= certora_certoraAssumet_2 certora_certoraAssumet_1) (= certoraAssume_5 (not (= certoraAssume_2 (_ bv0 256))))) (= certora_certoraAssumet1t1_2 certora_certoraAssumet1t1_0)) (= certora_certoraAssumet1t2_2 certora_certoraAssumet1t2_0)) (= certoraDivisionByZero_2 certoraDivisionByZero_0)) (= certora_certoraAssumet1_2 certora_certoraAssumet1_0)) (= certora_certoraAssumet2_2 certora_certoraAssumet2_0))) OK_102_0_0_0_0_0_0))))))) (= OK_89_0_0_0_0_0_0 (=> (= certoraAssume_3 certoraCond_1) (=> certoraAssume_3 (=> (= certora_certoraAssumet1t1_1 c_1) (=> (= certora_certoraAssumet1t2_1 b_0) (=> (= certoraDivisionByZero_1 (= certora_certoraAssumet1t2_1 (_ bv0 256))) (and (not certoraDivisionByZero_1) (=> (= certora_certoraAssumet1_1 (bvudiv certora_certoraAssumet1t1_1 certora_certoraAssumet1t2_1)) (=> (= certora_certoraAssumet2_1 a_0) (=> (= certoraAssume_4 (= certora_certoraAssumet1_1 certora_certoraAssumet2_1)) (=> certoraAssume_4 (=> (and true (and (and (and (and (and (and (= certora_certoraAssumet_2 certora_certoraAssumet_0) (= certoraAssume_5 certoraAssume_4)) (= certora_certoraAssumet1t1_2 certora_certoraAssumet1t1_1)) (= certora_certoraAssumet1t2_2 certora_certoraAssumet1t2_1)) (= certoraDivisionByZero_2 certoraDivisionByZero_1)) (= certora_certoraAssumet1_2 certora_certoraAssumet1_1)) (= certora_certoraAssumet2_2 certora_certoraAssumet2_1))) OK_102_0_0_0_0_0_0)))))))))))) (= OK_102_0_0_0_0_0_0 (=> (= lastOverflow_1 lastAssignmentOverflown_2) (=> (= certora_certoraAssert_1t_1 lastOverflow_1) (=> (= certoraAssert_1_1 (not certora_certoraAssert_1t_1)) (and certoraAssert_1_1 true)))))) OK_0_0_0_0_0_0_0)))
(check-sat)
(get-model)
